# Generated by ConicBenchmarkUtilities.jl
VER
2

OBJSENSE
MIN

VAR
133 1
F 133

INT
40
24
25
26
27
28
29
30
31
32
33
34
35
36
37
38
39
40
41
42
43
82
84
86
88
90
92
94
96
97
98
99
100
102
104
106
108
109
110
111
112

CON
447 423
L= 1
L= 1
L= 1
L= 1
L= 1
L= 1
L= 1
L= 1
L= 1
L= 1
L= 1
L= 1
L= 1
L= 1
L= 1
L= 1
L= 1
EXP 3
L+ 1
EXP 3
L+ 1
EXP 3
L+ 1
EXP 3
L+ 1
L+ 1
L+ 1
L+ 1
L+ 1
L+ 1
L+ 1
L+ 1
L+ 1
EXP 3
L+ 1
EXP 3
L+ 1
EXP 3
L+ 1
EXP 3
L+ 1
L+ 1
L+ 1
L+ 1
L+ 1
L+ 1
L+ 1
L+ 1
L+ 1
L+ 1
L+ 1
L+ 1
L+ 1
L+ 1
L+ 1
L+ 1
L+ 1
L+ 1
L+ 1
L+ 1
L+ 1
L+ 1
L+ 1
L+ 1
L+ 1
EXP 3
L+ 1
EXP 3
L+ 1
EXP 3
L+ 1
EXP 3
L+ 1
L+ 1
L+ 1
L+ 1
L+ 1
L+ 1
L+ 1
L+ 1
L+ 1
L+ 1
L+ 1
L+ 1
L+ 1
L+ 1
L+ 1
L+ 1
L+ 1
L+ 1
L+ 1
L+ 1
L+ 1
L+ 1
L+ 1
L+ 1
L+ 1
L+ 1
L+ 1
L+ 1
L+ 1
L+ 1
L+ 1
L+ 1
L+ 1
L+ 1
L+ 1
L+ 1
L+ 1
L+ 1
L+ 1
L+ 1
L+ 1
L+ 1
L+ 1
L+ 1
L+ 1
L+ 1
L+ 1
L+ 1
L+ 1
L+ 1
L+ 1
L+ 1
L+ 1
L+ 1
L+ 1
L+ 1
L+ 1
L+ 1
L+ 1
L+ 1
L+ 1
L+ 1
L+ 1
L+ 1
L+ 1
L+ 1
L+ 1
L+ 1
L+ 1
L+ 1
L+ 1
L+ 1
L+ 1
L+ 1
L+ 1
L+ 1
L+ 1
L+ 1
L+ 1
L+ 1
L+ 1
L+ 1
L+ 1
L+ 1
L+ 1
L+ 1
L+ 1
L+ 1
L+ 1
L+ 1
L+ 1
L+ 1
L+ 1
L+ 1
L+ 1
L+ 1
L+ 1
L+ 1
L+ 1
L+ 1
L+ 1
L+ 1
L+ 1
L+ 1
L+ 1
L+ 1
L+ 1
L+ 1
L+ 1
L+ 1
L+ 1
L+ 1
L+ 1
L+ 1
L+ 1
L+ 1
L+ 1
L+ 1
L+ 1
L+ 1
L+ 1
L+ 1
L+ 1
L+ 1
L+ 1
L+ 1
L+ 1
L+ 1
L+ 1
L+ 1
L+ 1
L+ 1
L+ 1
L+ 1
L+ 1
L+ 1
L+ 1
L+ 1
L+ 1
L+ 1
L+ 1
L+ 1
L+ 1
L+ 1
L+ 1
L+ 1
L+ 1
L+ 1
L+ 1
L+ 1
L+ 1
L+ 1
L+ 1
L+ 1
L+ 1
L+ 1
L+ 1
L+ 1
L+ 1
L+ 1
L+ 1
L+ 1
L+ 1
L+ 1
L+ 1
L+ 1
L+ 1
L+ 1
L+ 1
L+ 1
L+ 1
L+ 1
L+ 1
L+ 1
L+ 1
L+ 1
L+ 1
L+ 1
L+ 1
L+ 1
L+ 1
L+ 1
L+ 1
L+ 1
L+ 1
L+ 1
L+ 1
L= 1
L= 1
L= 1
L= 1
L+ 1
L+ 1
L+ 1
L+ 1
L+ 1
L+ 1
L+ 1
L+ 1
L+ 1
L+ 1
L+ 1
L+ 1
L+ 1
L+ 1
L+ 1
L+ 1
L+ 1
L+ 1
L+ 1
L+ 1
L+ 1
L+ 1
L+ 1
L+ 1
L+ 1
L+ 1
L+ 1
L+ 1
L+ 1
L+ 1
L+ 1
L+ 1
L+ 1
L+ 1
L+ 1
L+ 1
L+ 1
L+ 1
L+ 1
L+ 1
L+ 1
L+ 1
L+ 1
L+ 1
L+ 1
L+ 1
L+ 1
L+ 1
L+ 1
L+ 1
L+ 1
L+ 1
L+ 1
L+ 1
L+ 1
L+ 1
L+ 1
L+ 1
L+ 1
L+ 1
L+ 1
L+ 1
L+ 1
L+ 1
L+ 1
L+ 1
L+ 1
L+ 1
L+ 1
L+ 1
L+ 1
L+ 1
L+ 1
L+ 1
L+ 1
L+ 1
L+ 1
L+ 1
L+ 1
L+ 1
L+ 1
L+ 1
L+ 1
L+ 1
L+ 1
L+ 1
L+ 1
L+ 1
L+ 1
L+ 1
L+ 1
L+ 1
L+ 1
L+ 1
L+ 1
L+ 1
L+ 1
L+ 1
L+ 1
L+ 1
L+ 1
L+ 1
L+ 1
L+ 1
L+ 1
L+ 1
L+ 1
L+ 1
L+ 1
L+ 1
L+ 1
L+ 1
L+ 1
L+ 1
L+ 1
L+ 1
L+ 1
L+ 1
L+ 1
L+ 1
L+ 1
L+ 1
L+ 1
L+ 1
L+ 1
L+ 1
L+ 1
L+ 1
L+ 1
L+ 1
L+ 1
L+ 1
L+ 1
L+ 1
L+ 1
L+ 1
L+ 1
L+ 1
L+ 1
L+ 1
L+ 1
L+ 1
L+ 1
L+ 1
L+ 1
L+ 1
L+ 1
L+ 1
L+ 1
L+ 1
L+ 1
L+ 1
L+ 1
L+ 1
L+ 1
L+ 1
L+ 1
L+ 1
L+ 1
L+ 1

OBJACOORD
1
44 -1.0

ACOORD
839
0 0 -1.0
1 0 1.0
299 0 1.0
300 0 -1.0
0 1 -1.0
2 1 1.0
301 1 1.0
302 1 -1.0
0 2 -1.0
3 2 1.0
303 2 1.0
304 2 -1.0
0 3 -1.0
4 3 1.0
305 3 1.0
306 3 -1.0
0 4 5.0
9 4 -1.0
327 4 1.0
0 5 10.0
10 5 -1.0
328 5 1.0
0 6 5.0
11 6 -1.0
329 6 1.0
0 7 10.0
12 7 -1.0
330 7 1.0
0 8 -2.0
113 8 0.5
117 8 -0.5
125 8 -1.0
347 8 1.0
348 8 -1.0
0 9 -1.0
114 9 0.5
118 9 -0.5
126 9 -1.0
349 9 1.0
350 9 -1.0
0 10 -2.0
115 10 0.5
119 10 -0.5
127 10 -1.0
351 10 1.0
352 10 -1.0
0 11 -1.0
116 11 0.5
120 11 -0.5
128 11 -1.0
353 11 1.0
354 11 -1.0
0 12 80.0
65 12 -1.0
69 12 1.0
77 12 -1.0
355 12 1.0
0 13 90.0
66 13 -1.0
70 13 1.0
78 13 -1.0
356 13 1.0
0 14 120.0
67 14 -1.0
71 14 1.0
79 14 -1.0
357 14 1.0
0 15 100.0
68 15 -1.0
72 15 1.0
80 15 -1.0
358 15 1.0
0 16 285.0
84 16 -1.0
101 16 -1.0
359 16 1.0
0 17 390.0
88 17 -1.0
102 17 -1.0
360 17 1.0
0 18 350.0
92 18 -1.0
103 18 -1.0
361 18 1.0
0 19 300.0
96 19 -1.0
104 19 -1.0
362 19 1.0
0 20 290.0
105 20 -1.0
109 20 1.0
113 20 -1.0
117 20 1.0
129 20 -1.0
363 20 1.0
0 21 405.0
106 21 -1.0
110 21 1.0
114 21 -1.0
118 21 1.0
130 21 -1.0
364 21 1.0
0 22 190.0
107 22 -1.0
111 22 1.0
115 22 -1.0
119 22 1.0
131 22 -1.0
365 22 1.0
0 23 340.0
108 23 -1.0
112 23 1.0
116 23 -1.0
120 23 1.0
132 23 -1.0
366 23 1.0
0 24 -5.0
133 24 -5.0
153 24 5.0
203 24 -1.0
204 24 -1.0
205 24 -1.0
206 24 -1.0
209 24 -1.0
212 24 -1.0
263 24 1.0
407 24 1.0
408 24 -1.0
0 25 -4.0
134 25 -4.0
154 25 4.0
203 25 -1.0
206 25 -1.0
207 25 -1.0
208 25 -1.0
210 25 -1.0
213 25 -1.0
264 25 1.0
409 25 1.0
410 25 -1.0
0 26 -6.0
135 26 -6.0
155 26 6.0
204 26 -1.0
207 26 -1.0
209 26 -1.0
210 26 -1.0
211 26 -1.0
214 26 -1.0
265 26 1.0
411 26 1.0
412 26 -1.0
0 27 -3.0
136 27 -3.0
156 27 3.0
205 27 -1.0
208 27 -1.0
211 27 -1.0
212 27 -1.0
213 27 -1.0
214 27 -1.0
266 27 1.0
413 27 1.0
414 27 -1.0
0 28 -8.0
137 28 -8.0
157 28 8.0
215 28 -1.0
216 28 -1.0
217 28 -1.0
218 28 -1.0
221 28 -1.0
224 28 -1.0
267 28 1.0
415 28 1.0
416 28 -1.0
0 29 -7.0
138 29 -7.0
158 29 7.0
215 29 -1.0
218 29 -1.0
219 29 -1.0
220 29 -1.0
222 29 -1.0
225 29 -1.0
268 29 1.0
417 29 1.0
418 29 -1.0
0 30 -6.0
139 30 -6.0
159 30 6.0
216 30 -1.0
219 30 -1.0
221 30 -1.0
222 30 -1.0
223 30 -1.0
226 30 -1.0
269 30 1.0
419 30 1.0
420 30 -1.0
0 31 -5.0
140 31 -5.0
160 31 5.0
217 31 -1.0
220 31 -1.0
223 31 -1.0
224 31 -1.0
225 31 -1.0
226 31 -1.0
270 31 1.0
421 31 1.0
422 31 -1.0
0 32 -6.0
141 32 -6.0
161 32 6.0
227 32 -1.0
228 32 -1.0
229 32 -1.0
230 32 -1.0
233 32 -1.0
236 32 -1.0
271 32 1.0
423 32 1.0
424 32 -1.0
0 33 -9.0
142 33 -9.0
162 33 9.0
227 33 -1.0
230 33 -1.0
231 33 -1.0
232 33 -1.0
234 33 -1.0
237 33 -1.0
272 33 1.0
425 33 1.0
426 33 -1.0
0 34 -4.0
143 34 -4.0
163 34 4.0
228 34 -1.0
231 34 -1.0
233 34 -1.0
234 34 -1.0
235 34 -1.0
238 34 -1.0
273 34 1.0
427 34 1.0
428 34 -1.0
0 35 -3.0
144 35 -3.0
164 35 3.0
229 35 -1.0
232 35 -1.0
235 35 -1.0
236 35 -1.0
237 35 -1.0
238 35 -1.0
274 35 1.0
429 35 1.0
430 35 -1.0
0 36 -10.0
145 36 -10.0
165 36 10.0
239 36 -1.0
240 36 -1.0
241 36 -1.0
242 36 -1.0
245 36 -1.0
248 36 -1.0
275 36 1.0
431 36 1.0
432 36 -1.0
0 37 -9.0
146 37 -9.0
166 37 9.0
239 37 -1.0
242 37 -1.0
243 37 -1.0
244 37 -1.0
246 37 -1.0
249 37 -1.0
276 37 1.0
433 37 1.0
434 37 -1.0
0 38 -5.0
147 38 -5.0
167 38 5.0
240 38 -1.0
243 38 -1.0
245 38 -1.0
246 38 -1.0
247 38 -1.0
250 38 -1.0
277 38 1.0
435 38 1.0
436 38 -1.0
0 39 -6.0
148 39 -6.0
168 39 6.0
241 39 -1.0
244 39 -1.0
247 39 -1.0
248 39 -1.0
249 39 -1.0
250 39 -1.0
278 39 1.0
437 39 1.0
438 39 -1.0
0 40 -6.0
149 40 -6.0
169 40 6.0
251 40 -1.0
252 40 -1.0
253 40 -1.0
254 40 -1.0
257 40 -1.0
260 40 -1.0
279 40 1.0
439 40 1.0
440 40 -1.0
0 41 -10.0
150 41 -10.0
170 41 10.0
251 41 -1.0
254 41 -1.0
255 41 -1.0
256 41 -1.0
258 41 -1.0
261 41 -1.0
280 41 1.0
441 41 1.0
442 41 -1.0
0 42 -6.0
151 42 -6.0
171 42 6.0
252 42 -1.0
255 42 -1.0
257 42 -1.0
258 42 -1.0
259 42 -1.0
262 42 -1.0
281 42 1.0
443 42 1.0
444 42 -1.0
0 43 -9.0
152 43 -9.0
172 43 9.0
253 43 -1.0
256 43 -1.0
259 43 -1.0
260 43 -1.0
261 43 -1.0
262 43 -1.0
282 43 1.0
445 43 1.0
446 43 -1.0
0 44 -1.0
1 45 -1.0
17 45 1.0
33 45 -1.0
307 45 1.0
1 46 -1.0
41 46 1.0
57 46 -1.0
311 46 1.0
2 47 -1.0
21 47 1.0
34 47 -1.0
308 47 1.0
2 48 -1.0
45 48 1.0
58 48 -1.0
312 48 1.0
3 49 -1.0
25 49 1.0
35 49 -1.0
309 49 1.0
3 50 -1.0
49 50 1.0
59 50 -1.0
313 50 1.0
4 51 -1.0
29 51 1.0
36 51 -1.0
310 51 1.0
4 52 -1.0
53 52 1.0
60 52 -1.0
314 52 1.0
5 53 -1.0
20 53 -1.0
37 53 -1.0
315 53 1.0
5 54 -1.0
44 54 -1.0
61 54 -1.0
319 54 1.0
5 55 1.0
9 55 1.0
323 55 1.0
6 56 -1.0
24 56 -1.0
38 56 -1.0
316 56 1.0
6 57 -1.0
48 57 -1.0
62 57 -1.0
320 57 1.0
6 58 1.0
10 58 1.0
324 58 1.0
7 59 -1.0
28 59 -1.0
39 59 -1.0
317 59 1.0
7 60 -1.0
52 60 -1.0
63 60 -1.0
321 60 1.0
7 61 1.0
11 61 1.0
325 61 1.0
8 62 -1.0
32 62 -1.0
40 62 -1.0
318 62 1.0
8 63 -1.0
56 63 -1.0
64 63 -1.0
322 63 1.0
8 64 1.0
12 64 1.0
326 64 1.0
9 65 -1.0
13 65 1.0
331 65 1.0
10 66 -1.0
14 66 1.0
332 66 1.0
11 67 -1.0
15 67 1.0
333 67 1.0
12 68 -1.0
16 68 1.0
334 68 1.0
13 69 -1.0
65 69 0.75
69 69 -0.75
73 69 -1.0
335 69 1.0
13 70 -1.0
81 70 1.0
97 70 -1.0
339 70 1.0
13 71 -1.0
105 71 1.0
109 71 -1.0
121 71 -1.0
343 71 1.0
14 72 -1.0
66 72 0.75
70 72 -0.75
74 72 -1.0
336 72 1.0
14 73 -1.0
85 73 1.0
98 73 -1.0
340 73 1.0
14 74 -1.0
106 74 1.0
110 74 -1.0
122 74 -1.0
344 74 1.0
15 75 -1.0
67 75 0.75
71 75 -0.75
75 75 -1.0
337 75 1.0
15 76 -1.0
89 76 1.0
99 76 -1.0
341 76 1.0
15 77 -1.0
107 77 1.0
111 77 -1.0
123 77 -1.0
345 77 1.0
16 78 -1.0
68 78 0.75
72 78 -0.75
76 78 -1.0
338 78 1.0
16 79 -1.0
93 79 1.0
100 79 -1.0
342 79 1.0
16 80 -1.0
108 80 1.0
112 80 -1.0
124 80 -1.0
346 80 1.0
19 81 1.0
20 81 1.0
20 82 -1.0
33 82 40.0
37 82 3.71357206670431
173 82 -1.0
174 82 -1.0
175 82 -1.0
263 82 -1.0
264 82 1.0
265 82 1.0
266 82 1.0
283 82 1.0
287 82 1.0
291 82 1.0
295 82 1.0
367 82 1.0
368 82 -1.0
23 83 1.0
24 83 1.0
24 84 -1.0
34 84 40.0
38 84 3.71357206670431
173 84 1.0
176 84 -1.0
177 84 -1.0
264 84 -1.0
265 84 1.0
266 84 1.0
284 84 1.0
288 84 1.0
292 84 1.0
296 84 1.0
369 84 1.0
370 84 -1.0
27 85 1.0
28 85 1.0
28 86 -1.0
35 86 40.0
39 86 3.71357206670431
174 86 1.0
176 86 1.0
178 86 -1.0
265 86 -1.0
266 86 1.0
285 86 1.0
289 86 1.0
293 86 1.0
297 86 1.0
371 86 1.0
372 86 -1.0
31 87 1.0
32 87 1.0
32 88 -1.0
36 88 40.0
40 88 3.71357206670431
175 88 1.0
177 88 1.0
178 88 1.0
266 88 -1.0
286 88 1.0
290 88 1.0
294 88 1.0
298 88 1.0
373 88 1.0
374 88 -1.0
43 89 1.0
44 89 1.2
44 90 -1.0
57 90 40.0
61 90 4.45628648004517
179 90 -1.0
180 90 -1.0
181 90 -1.0
267 90 -1.0
268 90 1.0
269 90 1.0
270 90 1.0
283 90 1.0
287 90 1.0
291 90 1.0
295 90 1.0
375 90 1.0
376 90 -1.0
47 91 1.0
48 91 1.2
48 92 -1.0
58 92 40.0
62 92 4.45628648004517
179 92 1.0
182 92 -1.0
183 92 -1.0
268 92 -1.0
269 92 1.0
270 92 1.0
284 92 1.0
288 92 1.0
292 92 1.0
296 92 1.0
377 92 1.0
378 92 -1.0
51 93 1.0
52 93 1.2
52 94 -1.0
59 94 40.0
63 94 4.45628648004517
180 94 1.0
182 94 1.0
184 94 -1.0
269 94 -1.0
270 94 1.0
285 94 1.0
289 94 1.0
293 94 1.0
297 94 1.0
379 94 1.0
380 94 -1.0
55 95 1.0
56 95 1.2
56 96 -1.0
60 96 40.0
64 96 4.45628648004517
181 96 1.0
183 96 1.0
184 96 1.0
270 96 -1.0
286 96 1.0
290 96 1.0
294 96 1.0
298 96 1.0
381 96 1.0
382 96 -1.0
65 97 -1.0
69 97 -1.0
73 97 4.45628648004517
77 97 3.34221486003388
185 97 -1.0
186 97 -1.0
187 97 -1.0
271 97 -1.0
272 97 1.0
273 97 1.0
274 97 1.0
287 97 -1.0
383 97 1.0
384 97 -1.0
66 98 -1.0
70 98 -1.0
74 98 4.45628648004517
78 98 3.34221486003388
185 98 1.0
188 98 -1.0
189 98 -1.0
272 98 -1.0
273 98 1.0
274 98 1.0
288 98 -1.0
385 98 1.0
386 98 -1.0
67 99 -1.0
71 99 -1.0
75 99 4.45628648004517
79 99 3.34221486003388
186 99 1.0
188 99 1.0
190 99 -1.0
273 99 -1.0
274 99 1.0
289 99 -1.0
387 99 1.0
388 99 -1.0
68 100 -1.0
72 100 -1.0
76 100 4.45628648004517
80 100 3.34221486003388
187 100 1.0
189 100 1.0
190 100 1.0
274 100 -1.0
290 100 -1.0
389 100 1.0
390 100 -1.0
83 101 1.0
84 101 1.5
84 102 -1.0
97 102 4.45628648004517
101 102 2.54515263975353
191 102 -1.0
192 102 -1.0
193 102 -1.0
275 102 -1.0
276 102 1.0
277 102 1.0
278 102 1.0
291 102 -1.0
391 102 1.0
392 102 -1.0
87 103 1.0
88 103 1.5
88 104 -1.0
98 104 4.45628648004517
102 104 2.54515263975353
191 104 1.0
194 104 -1.0
195 104 -1.0
276 104 -1.0
277 104 1.0
278 104 1.0
292 104 -1.0
393 104 1.0
394 104 -1.0
91 105 1.0
92 105 1.5
92 106 -1.0
99 106 4.45628648004517
103 106 2.54515263975353
192 106 1.0
194 106 1.0
196 106 -1.0
277 106 -1.0
278 106 1.0
293 106 -1.0
395 106 1.0
396 106 -1.0
95 107 1.0
96 107 1.5
96 108 -1.0
100 108 4.45628648004517
104 108 2.54515263975353
193 108 1.0
195 108 1.0
196 108 1.0
278 108 -1.0
294 108 -1.0
397 108 1.0
398 108 -1.0
105 109 -1.0
109 109 -1.0
113 109 -1.0
117 109 -1.0
121 109 4.45628648004517
125 109 30.0
129 109 15.0
197 109 -1.0
198 109 -1.0
199 109 -1.0
279 109 -1.0
280 109 1.0
281 109 1.0
282 109 1.0
295 109 -1.0
399 109 1.0
400 109 -1.0
106 110 -1.0
110 110 -1.0
114 110 -1.0
118 110 -1.0
122 110 4.45628648004517
126 110 30.0
130 110 15.0
197 110 1.0
200 110 -1.0
201 110 -1.0
280 110 -1.0
281 110 1.0
282 110 1.0
296 110 -1.0
401 110 1.0
402 110 -1.0
107 111 -1.0
111 111 -1.0
115 111 -1.0
119 111 -1.0
123 111 4.45628648004517
127 111 30.0
131 111 15.0
198 111 1.0
200 111 1.0
202 111 -1.0
281 111 -1.0
282 111 1.0
297 111 -1.0
403 111 1.0
404 111 -1.0
108 112 -1.0
112 112 -1.0
116 112 -1.0
120 112 -1.0
124 112 4.45628648004517
128 112 30.0
132 112 15.0
199 112 1.0
201 112 1.0
202 112 1.0
282 112 -1.0
298 112 -1.0
405 112 1.0
406 112 -1.0
133 113 -1.0
153 113 1.0
134 114 -1.0
154 114 1.0
135 115 -1.0
155 115 1.0
136 116 -1.0
156 116 1.0
137 117 -1.0
157 117 1.0
138 118 -1.0
158 118 1.0
139 119 -1.0
159 119 1.0
140 120 -1.0
160 120 1.0
141 121 -1.0
161 121 1.0
142 122 -1.0
162 122 1.0
143 123 -1.0
163 123 1.0
144 124 -1.0
164 124 1.0
145 125 -1.0
165 125 1.0
146 126 -1.0
166 126 1.0
147 127 -1.0
167 127 1.0
148 128 -1.0
168 128 1.0
149 129 -1.0
169 129 1.0
150 130 -1.0
170 130 1.0
151 131 -1.0
171 131 1.0
152 132 -1.0
172 132 1.0

BCOORD
172
17 1.0
18 1.0
20 1.0
21 1.0
22 1.0
24 1.0
25 1.0
26 1.0
28 1.0
29 1.0
30 1.0
32 1.0
41 1.0
42 1.0
44 1.0
45 1.0
46 1.0
48 1.0
49 1.0
50 1.0
52 1.0
53 1.0
54 1.0
56 1.0
65 1.0
66 1.0
67 1.0
68 1.0
69 1.0
70 1.0
71 1.0
72 1.0
81 1.0
82 1.0
84 1.0
85 1.0
86 1.0
88 1.0
89 1.0
90 1.0
92 1.0
93 1.0
94 1.0
96 1.0
105 1.0
106 1.0
107 1.0
108 1.0
109 1.0
110 1.0
111 1.0
112 1.0
113 1.0
114 1.0
115 1.0
116 1.0
117 1.0
118 1.0
119 1.0
120 1.0
203 1.0
204 1.0
205 1.0
206 1.0
207 1.0
208 1.0
209 1.0
210 1.0
211 1.0
212 1.0
213 1.0
214 1.0
215 1.0
216 1.0
217 1.0
218 1.0
219 1.0
220 1.0
221 1.0
222 1.0
223 1.0
224 1.0
225 1.0
226 1.0
227 1.0
228 1.0
229 1.0
230 1.0
231 1.0
232 1.0
233 1.0
234 1.0
235 1.0
236 1.0
237 1.0
238 1.0
239 1.0
240 1.0
241 1.0
242 1.0
243 1.0
244 1.0
245 1.0
246 1.0
247 1.0
248 1.0
249 1.0
250 1.0
251 1.0
252 1.0
253 1.0
254 1.0
255 1.0
256 1.0
257 1.0
258 1.0
259 1.0
260 1.0
261 1.0
262 1.0
283 -1.0
284 -1.0
285 -1.0
286 -1.0
300 40.0
302 40.0
304 40.0
306 40.0
348 30.0
350 30.0
352 30.0
354 30.0
368 1.0
370 1.0
372 1.0
374 1.0
376 1.0
378 1.0
380 1.0
382 1.0
384 1.0
386 1.0
388 1.0
390 1.0
392 1.0
394 1.0
396 1.0
398 1.0
400 1.0
402 1.0
404 1.0
406 1.0
408 1.0
410 1.0
412 1.0
414 1.0
416 1.0
418 1.0
420 1.0
422 1.0
424 1.0
426 1.0
428 1.0
430 1.0
432 1.0
434 1.0
436 1.0
438 1.0
440 1.0
442 1.0
444 1.0
446 1.0
